results/x-10M/X-n120-k6.vrp_seed-5.out
13332	11482
