results/x-10M/X-n120-k6.vrp_seed-5.vrp.sol
Route #1: 33 36 115 48 86 65 74 110 106 7 97 19 28 18 44 9 15 83 58 14 23
Route #2: 98 13 41 85 89 51 63 104 105 101 47 5 26 117 108 66 46 75 17 103 99
Route #3: 78 8 53 81 69 68 60 95 4 22 59 100 77 57 37 24 1 56 11 27 34
Route #4: 10 94 80 32 91 21 79 118 30 67 25 73 31 52 50
Route #5: 116 107 96 71 112 45 3 114 90 35 92 6 40 111 102 72 87 62 54 20
Route #6: 88 38 29 12 49 2 43 76 113 64 82 109 42 39 70 55 93 16 84 119 61
Cost 13332.000000